false false false
presolving:
presolving (0 rounds: 0 fast, 0 medium, 0 exhaustive):
 0 deleted vars, 0 deleted constraints, 0 added constraints, 0 tightened bounds, 0 added holes, 0 changed sides, 0 changed coefficients
 0 implications, 0 cliques
presolved problem has 76 variables (76 bin, 0 int, 0 impl, 0 cont) and 65 constraints
     65 constraints of type <linear>
transformed objective value is always integral (scale: 1)
Presolving Time: 0.00

 time | node  | left  |LP iter|LP it/n|mem/heur|mdpt |vars |cons |rows |cuts |sepa|confs|strbr|  dualbound   | primalbound  |  gap   | compl. 
p 0.0s|     1 |     0 |     0 |     - |shiftand|   0 |  76 |  65 |  65 |   0 |  0 |   0 |   0 |      --      | 1.100000e+01 |    Inf | unknown
 time | node  | left  |LP iter|LP it/n|mem/heur|mdpt |vars |cons |rows |cuts |sepa|confs|strbr|  dualbound   | primalbound  |  gap   | compl. 
  1.0s|     1 |     0 |    29 |     - |  1407k |   0 | 207 |  65 |  65 |   0 |  0 |   0 |   0 | 1.000000e+00 | 1.100000e+01 |1000.00%| unknown
slurmstepd-htc-cmp437: error: *** JOB 16657438 ON htc-cmp437 CANCELLED AT 2024-01-28T05:15:35 DUE TO TIME LIMIT ***
